%nprocshared=4
# opt freq b3lyp 6-31G(d)

CheReNetw rerun

0 1
