%nprocshared=8
# opt freq b3lyp Def2SVP scrf=(solvent=water)

AutoChem rerun

0 1
