%nprocshared=8
# opt freq b3lyp 6-31G(d) scrf=(solvent=water)

AutoChem rerun

0 1
