! r2SCAN-3c def2-TZVP CPCM(Water) Opt Freq PAL8
* xyz 0 1
