! XTB2 opt numfreq
* XYZ 0 1
O -1.4049 0.0122 0.0000
C 0.0000 0.0000 0.0000
O 1.4049 -0.0122 0.0000
*
