! XTB2 opt numfreq
* XYZ 0 1
N 11.5932 1.0964 0.5070
C 10.7074 0.0927 0.2448
O 11.1065 -1.0139 -0.0887
C 9.2706 0.4356 0.3685
C 8.3732 -0.3751 -0.2251
N 6.9899 -0.1691 -0.1812
C 6.0772 -1.1225 -0.8527
O 5.0007 -0.4386 -1.5291
C 3.8199 -1.2719 -1.4233
C 2.7354 -0.4766 -0.6964
O 1.5211 -1.2083 -0.6783
P 0.3860 -0.6824 0.3322
O 0.2439 0.7918 0.4932
O 0.8444 -1.3587 1.7171
O -0.9297 -1.4901 -0.0189
P -1.7502 -1.2466 -1.3554
O -1.3580 -0.0937 -2.2143
O -1.6141 -2.6430 -2.1274
O -3.2870 -1.2822 -0.8990
C -3.7559 -0.2451 -0.0403
C -4.5338 0.8065 -0.8298
O -5.7855 0.2637 -1.3107
C -6.7512 1.3354 -1.3090
N -7.9457 0.9405 -0.5838
C -9.2247 1.2102 -1.0060
N -10.1299 0.7813 -0.1536
C -9.4026 0.1892 0.8604
C -9.7872 -0.4738 2.0408
N -11.1140 -0.6696 2.4074
N -8.8215 -0.9344 2.8705
C -7.5342 -0.7473 2.5145
N -7.0471 -0.1252 1.4203
C -8.0408 0.3068 0.6250
C -6.0760 2.5931 -0.7490
O -5.5609 3.4240 -1.8146
C -4.9021 2.0151 0.0226
O -3.8422 2.9520 0.1549
C 4.2323 -2.5558 -0.6841
O 4.7004 -3.5167 -1.6398
C 5.3968 -2.0572 0.1576
O 6.2264 -3.0941 0.6691
C 6.5133 0.9236 0.5363
C 7.3082 1.7872 1.1849
C 8.8106 1.6328 1.1600
H 11.3256 2.0683 0.5138
H 12.5619 0.8872 0.2992
H 8.6849 -1.2491 -0.7945
H 6.6293 -1.6938 -1.6110
H 3.4837 -1.5050 -2.4395
H 3.0492 -0.2331 0.3257
H 2.5682 0.4772 -1.2120
H 0.4193 -0.9179 2.4725
H -1.9472 -2.5760 -3.0396
H -4.4085 -0.7259 0.6906
H -2.9178 0.2016 0.4992
H -3.9489 1.1027 -1.7124
H -7.0527 1.4855 -2.3532
H -9.4416 1.7187 -1.9383
H -11.2176 -0.8175 3.4013
H -11.7624 -0.0359 1.9495
H -6.7931 -1.1559 3.1973
H -6.7179 3.2263 -0.1309
H -6.3235 3.8518 -2.2523
H -5.2203 1.7107 1.0248
H -3.7463 3.3706 -0.7231
H 3.4430 -3.0269 -0.0902
H 3.9497 -4.0812 -1.8916
H 5.0073 -1.4922 1.0123
H 6.9925 -2.6531 1.0741
H 5.4309 1.0484 0.5289
H 6.8856 2.6244 1.7268
H 9.2293 2.5488 0.7255
H 9.1741 1.5553 2.1889
*
