! XTB2 opt numfreq
* XYZ 1 1
N -11.2041 0.4521 0.9984
C -10.1454 1.0339 0.3684
O -9.9738 2.2453 0.3898
C -9.1679 0.1804 -0.3395
C -9.3449 -1.1770 -0.5883
C -8.3555 -1.8760 -1.2741
C -7.2076 -1.2108 -1.7020
N -7.0462 0.1100 -1.4543
C -5.8403 0.8431 -1.9255
O -5.0571 0.0504 -2.8309
C -3.6513 0.3344 -2.5833
C -2.9667 -0.9763 -2.1810
O -1.5652 -0.8963 -2.3219
P -0.6447 -0.5254 -1.0636
O -1.3048 -0.5838 0.2784
O -0.1204 0.9303 -1.4664
O 0.6155 -1.4668 -1.2396
P 1.6702 -1.6606 -0.0627
O 2.8220 -2.5418 -0.4095
O 0.7805 -2.1916 1.1604
O 2.0162 -0.1530 0.3784
C 2.7580 0.1032 1.5720
C 3.9911 -0.7791 1.7561
O 4.8738 -0.6697 0.6308
C 6.1438 -1.1804 1.0877
N 7.2035 -0.4609 0.4210
C 8.0381 -0.9985 -0.5255
N 8.9664 -0.1448 -0.9059
C 8.7003 1.0036 -0.1904
C 9.3212 2.2637 -0.1616
N 10.4352 2.5758 -0.9301
N 8.8044 3.2189 0.6415
C 7.7305 2.9056 1.4003
N 7.0590 1.7341 1.4700
C 7.5987 0.8296 0.6349
C 6.1580 -1.1038 2.6285
O 6.0921 -2.4178 3.2242
C 4.8515 -0.3809 2.9462
O 4.2836 -0.7929 4.1833
C -3.6139 1.4116 -1.4927
O -3.7063 2.7196 -2.0738
C -4.9181 1.1706 -0.7518
O -5.3453 2.3017 -0.0044
C -8.0060 0.8064 -0.7936
H -11.3626 -0.5368 1.1188
H -11.8182 1.0716 1.5178
H -10.2417 -1.7062 -0.2784
H -8.4802 -2.9380 -1.4798
H -6.4284 -1.7356 -2.2499
H -6.2045 1.7326 -2.4558
H -3.2201 0.7135 -3.5185
H -3.2517 -1.2898 -1.1713
H -3.3112 -1.7774 -2.8440
H 0.6327 1.2349 -0.9176
H 0.0127 -1.6281 1.3846
H 3.0567 1.1544 1.5157
H 2.0796 -0.0036 2.4230
H 3.6743 -1.8244 1.8541
H 6.2035 -2.2283 0.7667
H 7.9307 -2.0071 -0.9050
H 10.5411 3.5693 -1.0876
H 10.5722 1.9536 -1.7199
H 7.3620 3.7037 2.0393
H 7.0294 -0.5989 3.0620
H 6.9730 -2.8248 3.1249
H 5.0101 0.7008 2.9677
H 4.6151 -1.7062 4.3227
H -2.7418 1.4015 -0.8407
H -2.8273 2.9448 -2.4440
H -4.8269 0.3115 -0.0759
H -4.8808 3.0833 -0.3770
H -7.8255 1.8681 -0.6296
*
