! XTB2 opt numfreq
* XYZ 1 1
O 0.0017 -0.0041 0.2226
H 0.8417 -0.4280 -0.0885
H -0.0496 0.9454 -0.0563
H -0.7937 -0.5133 -0.0778
*
