! XTB2 opt numfreq
* XYZ 0 1
O 3.9195 -1.8937 -0.5378
P 2.9028 -1.8876 0.5481
O 2.2576 -3.3200 0.8292
O 3.4704 -1.5006 1.9868
O 1.6248 -0.9502 0.3519
C 1.8781 0.4272 0.1071
C 0.5697 1.1946 -0.0539
O -0.1710 0.7006 -1.1891
C -1.5717 0.9114 -0.9272
O -2.0183 1.8812 -1.8696
C -2.3428 -0.4075 -1.1498
O -2.1825 -1.3208 -0.0600
C -1.6889 1.4828 0.5057
O -2.7869 1.0097 1.2920
C -0.3685 1.0699 1.1333
O -0.0059 1.9257 2.2114
H 1.9499 -3.7271 0.0000
H 4.2657 -2.0193 2.1993
H 2.4648 0.5058 -0.8145
H 2.4611 0.8400 0.9369
H 0.8103 2.2485 -0.2462
H -1.7759 1.5196 -2.7384
H -3.4136 -0.2097 -1.2685
H -1.9869 -0.9003 -2.0617
H -2.5367 -2.1776 -0.3610
H -1.7763 2.5760 0.4828
H -2.7484 0.0302 1.2558
H -0.4241 0.0466 1.5207
H -0.7765 1.9444 2.8108
*
