! XTB2 opt numfreq
* XYZ 0 1
O 0.0061 0.3978 0.0000
H 0.7603 -0.2105 0.0000
H -0.7664 -0.1872 0.0000
*
