! XTB2 opt numfreq
* XYZ 1 1
N 10.8824 -1.1219 1.7786
C 10.2129 -0.4595 0.7934
O 10.8108 0.0897 -0.1218
C 8.7352 -0.3972 0.8298
C 7.9376 -1.1260 1.7044
C 6.5533 -0.9838 1.6365
C 5.9922 -0.1138 0.7052
N 6.7798 0.5829 -0.1480
C 6.1935 1.5236 -1.1377
O 5.0292 2.1640 -0.5979
C 3.9723 2.0357 -1.5731
C 2.6267 2.0166 -0.8589
O 2.6082 0.9676 0.1060
P 1.4434 1.0532 1.2092
O 1.5135 2.2771 2.0629
O 1.6711 -0.2620 2.0918
O 0.0733 0.8211 0.4565
P -0.3287 -0.4916 -0.3350
O 0.7752 -1.2309 -1.0107
O -1.4044 0.0433 -1.3975
O -1.2477 -1.3531 0.6661
C -2.2762 -0.6835 1.3833
C -3.5693 -1.4947 1.3651
O -4.6065 -0.7588 2.0312
C -5.8600 -1.0679 1.3739
N -6.5494 0.1750 1.1000
C -7.6786 0.6019 1.7567
N -8.0820 1.7795 1.3283
C -7.1761 2.1279 0.3502
C -7.0616 3.2590 -0.4758
N -7.9578 4.3165 -0.4357
N -6.0213 3.3296 -1.3380
C -5.1623 2.2893 -1.3885
N -5.1746 1.1548 -0.6596
C -6.2104 1.1443 0.1970
C -5.5573 -1.9578 0.1587
O -5.8271 -3.3177 0.5154
P -7.2495 -3.8940 0.0671
O -7.4782 -4.0704 -1.3890
O -7.3956 -5.2216 0.9322
O -8.2897 -2.9129 0.7793
C -4.0645 -1.7674 -0.0518
O -3.4369 -2.8754 -0.6881
C 4.2850 0.7585 -2.3475
O 3.6864 0.6903 -3.6326
C 5.8024 0.7938 -2.4288
O 6.2125 1.5568 -3.5688
C 8.1273 0.4519 -0.0969
H 10.4779 -1.6544 2.5383
H 11.8943 -1.1780 1.6904
H 8.3602 -1.8120 2.4322
H 5.9106 -1.5484 2.3111
H 4.9142 0.0230 0.6447
H 6.9326 2.3127 -1.3206
H 4.0116 2.9109 -2.2344
H 2.4822 2.9706 -0.3406
H 1.8060 1.8678 -1.5668
H 1.5190 -0.0629 3.0398
H -1.5726 -0.6071 -2.1095
H -2.4633 0.3183 0.9784
H -1.9379 -0.5380 2.4153
H -3.4067 -2.4421 1.8973
H -6.4622 -1.6062 2.1156
H -8.1592 0.0219 2.5369
H -8.5323 4.3542 0.3962
H -7.5793 5.1789 -0.8016
H -4.3587 2.3766 -2.1143
H -6.1282 -1.7050 -0.7408
H -6.9086 -5.9631 0.5241
H -9.2042 -3.1432 0.5214
H -3.8901 -0.8980 -0.6879
H -2.5348 -2.9667 -0.3287
H 3.9857 -0.1284 -1.7763
H 3.7261 1.5656 -4.0627
H 6.2486 -0.2003 -2.5222
H 5.8989 1.0703 -4.3588
H 8.7117 1.0413 -0.8032
*
