! XTB2 opt numfreq
* XYZ 0 1
N 10.6955 -1.6619 0.8208
C 10.3238 -1.0330 -0.3261
O 11.1528 -0.5948 -1.1132
C 8.8681 -0.9896 -0.6055
C 7.9438 -0.8913 0.3688
N 6.5633 -0.8369 0.1327
C 5.6290 -0.7451 1.2793
O 4.2612 -1.0290 0.8871
C 3.4595 0.1048 1.2426
C 2.3306 0.2894 0.2296
O 1.6099 1.4764 0.5166
P 1.1863 2.4703 -0.6656
O 0.4199 3.6925 -0.2780
O 2.5590 2.7553 -1.4374
O 0.4051 1.5636 -1.7078
P -1.1794 1.4068 -1.6141
O -1.7662 0.4959 -2.6410
O -1.7268 2.9089 -1.6694
O -1.4650 0.9498 -0.1060
C -2.8200 0.8849 0.3176
C -3.1032 -0.4647 0.9851
O -4.2864 -0.3293 1.8076
C -5.3341 -1.1209 1.2187
N -6.5753 -0.3771 1.2802
C -7.7110 -0.7857 1.9288
N -8.6975 0.0747 1.7871
C -8.1725 1.0878 1.0089
C -8.7178 2.2834 0.5111
N -10.0294 2.6778 0.7512
N -7.9281 3.0974 -0.2249
C -6.6571 2.7091 -0.4681
N -6.0300 1.5874 -0.0560
C -6.8497 0.8258 0.6889
C -4.8982 -1.4960 -0.1939
O -5.5037 -2.7128 -0.6050
P -5.5238 -3.0146 -2.1731
O -4.2187 -3.3545 -2.7956
O -6.3991 -1.8616 -2.8331
O -6.5560 -4.2253 -2.2714
C -3.3893 -1.5883 -0.0217
O -3.0453 -2.8518 0.5601
C 4.4100 1.2970 1.3000
O 3.9431 2.3698 2.1140
C 5.6455 0.6625 1.9052
O 5.4946 0.5906 3.3348
C 6.1315 -0.9013 -1.1899
C 6.9627 -0.9795 -2.2409
C 8.4611 -1.0056 -2.0574
H 11.6877 -1.8141 0.9483
H 10.0591 -2.2462 1.3445
H 8.2171 -0.8341 1.4201
H 5.9004 -1.5070 2.0206
H 3.0208 -0.0721 2.2341
H 2.7305 0.2952 -0.7928
H 1.6390 -0.5597 0.2827
H 2.6516 2.2595 -2.2757
H -1.3005 3.5145 -1.0154
H -2.9814 1.6972 1.0317
H -3.4980 1.0625 -0.5210
H -2.2722 -0.7387 1.6453
H -5.4620 -2.0168 1.8372
H -7.7605 -1.7130 2.4865
H -10.4433 2.2225 1.5578
H -10.1417 3.6789 0.6661
H -6.0627 3.3865 -1.0765
H -5.1305 -0.7042 -0.9122
H -7.3268 -2.1318 -2.9473
H -6.0865 -5.0618 -2.4404
H -2.8303 -1.4960 -0.9562
H -3.1687 -3.5211 -0.1476
H 4.6335 1.6745 0.2951
H 2.9996 2.5159 1.8981
H 6.5537 1.2408 1.7117
H 5.1314 1.4645 3.5876
H 5.0571 -0.9086 -1.3396
H 6.5719 -1.0493 -3.2525
H 8.8525 -1.9108 -2.5381
H 8.8866 -0.1385 -2.5738
*
