! XTB2 opt numfreq
* XYZ 0 1
O -4.1162 2.0355 -1.0696
P -3.5976 0.6754 -0.7644
O -3.1550 -0.1806 -2.0356
O -4.6621 -0.2890 -0.0744
O -2.3344 0.5861 0.2235
C -1.1379 1.2164 -0.2055
C 0.0151 0.2041 -0.2884
O 1.1761 0.9113 -0.7455
C 2.2899 0.0475 -0.9205
O 3.3641 0.8254 -1.4340
C 2.7266 -0.6056 0.4010
O 3.8126 -1.5136 0.1504
C 1.5399 -1.3423 1.0277
O 1.8531 -1.7488 2.3734
C 0.2828 -0.4581 1.0784
O -0.8091 -1.2806 1.5116
H -3.8397 -0.1678 -2.7281
H -5.1267 0.1548 0.6602
H -0.8985 2.0141 0.5088
H -1.2707 1.7089 -1.1793
H -0.2606 -0.5658 -1.0219
H 2.0642 -0.7113 -1.6803
H 3.3341 1.6548 -0.9253
H 3.1054 0.1514 1.1003
H 4.4730 -1.0115 -0.3646
H 1.3396 -2.2687 0.4727
H 1.0386 -2.1753 2.7060
H 0.4255 0.3133 1.8474
H -1.6321 -0.7646 1.3759
*
