! XTB2 opt numfreq
* XYZ 0 1
O -3.0010 1.3845 0.7646
C -3.2842 0.7283 -0.2447
C -4.7184 0.6212 -0.7435
O -5.6486 1.0571 0.2368
C -2.2156 0.0564 -1.1002
O -1.9441 0.9155 -2.2099
C -0.9323 -0.1720 -0.2706
O -0.3339 1.1150 -0.0188
C 0.0652 -1.0806 -1.0194
O -0.5913 -2.3229 -1.3346
C 1.3437 -1.4356 -0.2339
O 0.9650 -2.2641 0.8850
C 2.1666 -0.2489 0.2613
O 3.3882 -0.7578 0.7873
P 4.5257 0.2693 1.2384
O 5.7870 -0.3190 1.7659
O 3.8429 1.3708 2.1633
O 4.8296 1.1345 -0.0710
H -4.9452 -0.4207 -0.9835
H -4.8321 1.2404 -1.6373
H -5.2177 1.7857 0.7250
H -2.6250 -0.8889 -1.4690
H -1.3028 1.5799 -1.8850
H -1.1894 -0.6300 0.6926
H -0.9537 1.5736 0.5926
H 0.3583 -0.6047 -1.9625
H -0.4317 -2.9038 -0.5600
H 1.9714 -2.0796 -0.8628
H 1.7912 -2.4212 1.3854
H 1.6596 0.2670 1.0808
H 2.3775 0.4468 -0.5559
H 3.3359 2.0208 1.6466
H 5.7592 0.9829 -0.3347
*
