! XTB2 opt numfreq
* XYZ 1 1
N 11.5363 4.8314 2.7012
C 11.0524 4.2689 1.5387
N 11.4771 4.7651 0.3531
C 10.9825 4.2246 -0.7823
N 10.0784 3.2344 -0.9108
C 9.6880 2.7817 0.2919
C 10.1114 3.2270 1.5332
N 9.4716 2.5353 2.5507
C 8.6561 1.7097 1.9297
N 8.7700 1.8015 0.5661
C 7.9934 1.0732 -0.4110
O 6.6084 1.3969 -0.1859
C 5.8135 0.2448 -0.5171
C 4.9482 -0.1034 0.6949
O 3.7966 -0.8224 0.2759
P 3.3699 -2.1210 1.1062
O 4.3216 -3.2628 1.0349
O 3.2220 -1.5767 2.6045
O 1.8632 -2.4088 0.7005
P 1.3811 -2.5617 -0.8030
O 2.2033 -3.4272 -1.6898
O 1.2796 -1.0553 -1.3477
O -0.1688 -2.9893 -0.7139
C -1.0628 -2.1205 -0.0433
C -2.4395 -2.7796 0.0830
O -3.3491 -1.8384 0.7223
C -4.4758 -1.6883 -0.1579
N -5.0451 -0.3218 -0.0942
C -4.2372 0.7445 0.0889
C -4.7595 2.0296 0.1197
C -6.1327 2.2014 -0.0165
C -6.9914 1.0931 -0.1676
C -8.5127 1.2935 -0.2635
N -8.8695 1.7527 -1.5939
O -8.7903 2.4222 0.5740
C -9.4299 0.0897 0.2181
O -8.9013 -0.4654 1.4499
C -9.5038 -1.0653 -0.7791
O -8.8508 -1.1244 -1.8238
C -10.8828 0.5415 0.4712
O -10.9543 1.1460 1.7658
P -11.9237 2.4160 1.9196
O -13.1391 2.4199 1.0668
O -10.9408 3.6512 1.7173
O -12.1877 2.4636 3.4890
C -6.3849 -0.1644 -0.2338
C -3.9607 -1.9796 -1.5625
O -4.9972 -2.2725 -2.4868
C -3.0558 -3.1616 -1.2710
O -3.9282 -4.2920 -1.1324
C 6.7774 -0.8795 -0.9189
O 6.8633 -0.9107 -2.3464
C 8.1025 -0.4458 -0.2963
O 9.2758 -0.9346 -0.9230
P 9.5262 -2.5018 -1.0353
O 10.9279 -2.9224 -1.2879
O 8.9296 -3.1597 0.2837
O 8.5486 -3.0263 -2.1870
H 11.3288 4.3714 3.5792
H 12.2530 5.5370 2.6244
H 11.3687 4.6449 -1.7074
H 7.9636 1.0350 2.4171
H 8.2731 1.4192 -1.4158
H 5.1816 0.5229 -1.3665
H 4.5924 0.8122 1.1873
H 5.5315 -0.6691 1.4327
H 3.4561 -2.2808 3.2372
H 2.0558 -0.8464 -1.9160
H -1.1409 -1.1739 -0.5923
H -0.6757 -1.8724 0.9521
H -2.3671 -3.6636 0.7280
H -5.2568 -2.3898 0.1620
H -3.1736 0.5601 0.2062
H -4.1082 2.8905 0.2689
H -6.5375 3.2160 0.0245
H -8.5544 1.0773 -2.2969
H -8.3920 2.6264 -1.7898
H -8.8148 2.1049 1.4969
H -9.5232 -0.2142 2.1656
H -10.1689 -1.9024 -0.4975
H -11.2368 1.2193 -0.3187
H -11.5639 -0.3200 0.4985
H -10.6228 3.7360 0.7981
H -12.8790 3.1281 3.6951
H -6.9363 -1.0810 -0.3886
H -3.3743 -1.1394 -1.9527
H -5.1436 -3.2466 -2.4506
H -2.3438 -3.3796 -2.0713
H -3.3750 -5.0991 -1.1095
H 6.4457 -1.8670 -0.5809
H 7.2656 -1.7858 -2.5668
H 8.1141 -0.7460 0.7593
H 9.5653 -3.8027 0.6686
H 9.0925 -3.3977 -2.9166
*
