! XTB2 opt numfreq
* XYZ 0 1
O 0.3351 0.7734 2.5885
C 1.1122 0.5087 1.6764
O 2.4333 0.3106 1.9579
C 3.2976 -0.2227 0.9347
C 4.7220 -0.2653 1.5126
O 5.5437 -1.1771 0.8060
P 6.6918 -0.6024 -0.1445
O 6.2730 0.3529 -1.2099
O 7.3944 -1.9220 -0.6949
O 7.7945 -0.0299 0.8550
C 3.2163 0.6268 -0.3428
O 3.6895 -0.1302 -1.4646
C 1.7795 1.1217 -0.6161
O 1.7531 2.5335 -0.3293
C 0.7180 0.3378 0.1932
O 0.7684 -1.0783 -0.1132
C -0.7539 0.8323 -0.0750
O -0.8581 2.2122 0.2983
O -1.5961 -0.0237 0.7108
C -3.0009 0.2603 0.6953
C -3.7350 -1.0523 0.9924
O -5.1325 -0.8279 1.0978
P -6.0720 -2.1224 0.9645
O -6.0469 -2.8372 -0.3409
O -7.5198 -1.5667 1.3413
O -5.7224 -3.0314 2.2265
C -3.4849 0.9198 -0.6131
O -3.3308 2.3520 -0.4962
C -2.6548 0.4609 -1.8143
O -2.9418 -0.9127 -2.0885
C -1.1394 0.6615 -1.5860
O -0.6941 1.7839 -2.3670
H 3.0101 -1.2613 0.7326
H 5.1696 0.7352 1.5455
H 4.6829 -0.6094 2.5519
H 6.8371 -2.3707 -1.3570
H 8.5403 0.3568 0.3586
H 3.8688 1.5055 -0.2435
H 4.5569 0.2597 -1.7150
H 1.5876 1.0151 -1.6881
H 0.8181 2.8155 -0.2361
H 0.0319 -1.4825 0.3937
H -1.7757 2.4909 0.1088
H -3.1963 0.9520 1.5243
H -3.5212 -1.8009 0.2220
H -3.3744 -1.4680 1.9409
H -7.9635 -1.1949 0.5573
H -6.2031 -3.8770 2.1877
H -4.5489 0.7267 -0.7880
H -4.0890 2.6645 0.0390
H -2.9712 1.0342 -2.6956
H -2.5847 -1.1106 -2.9749
H -0.6299 -0.2168 -1.9975
H -1.0843 2.5899 -1.9765
*
