! XTB2 opt numfreq
* XYZ 0 1
O -0.8320 -2.0620 2.4088
C -0.3372 -2.8150 1.5846
O -0.2429 -4.1354 1.8565
C 0.2171 -2.4207 0.2033
O 0.5158 -3.5904 -0.6017
C 1.5408 -1.6413 0.5073
O 2.5347 -2.5675 0.9831
C 2.1135 -0.8822 -0.7112
O 2.1740 -1.8179 -1.8194
C 3.4953 -0.2124 -0.5432
O 4.5171 -1.1913 -0.7396
C 3.6584 0.5682 0.7628
O 2.5326 1.4143 0.9470
P 2.7200 2.7993 1.7143
O 1.4640 3.4926 2.1186
O 3.6960 2.4984 2.9373
O 3.6326 3.6771 0.7384
C -0.8651 -1.5560 -0.5440
O -0.5718 -1.4986 -1.9595
O -0.8521 -0.2351 0.0019
C -1.7195 0.7042 -0.6514
C -1.5580 2.0300 0.1175
O -2.4231 3.0570 -0.3171
P -2.1220 3.7419 -1.7335
O -1.2476 3.0048 -2.6836
O -3.5876 4.0632 -2.2976
O -1.6162 5.2036 -1.3069
C -3.1823 0.2257 -0.6972
O -3.9843 1.0619 -1.5634
C -3.2715 -1.2213 -1.2066
O -4.6275 -1.6835 -1.0381
C -2.3033 -2.1436 -0.4456
O -2.4368 -3.4692 -0.9889
H -0.6192 -4.2293 2.7564
H 1.1034 -3.2948 -1.3330
H 1.3724 -0.9293 1.3233
H 2.4781 -3.3662 0.4249
H 1.4203 -0.0884 -1.0068
H 3.1387 -2.0035 -1.9116
H 3.5972 0.4920 -1.3759
H 5.3751 -0.7710 -0.5229
H 3.7496 -0.1079 1.6216
H 4.5826 1.1584 0.7227
H 3.6358 3.1995 3.6136
H 3.0793 4.2355 0.1550
H 0.3829 -1.6125 -2.1159
H -1.3649 0.8479 -1.6777
H -1.7626 1.8542 1.1805
H -0.5198 2.3786 0.0676
H -4.0304 3.2117 -2.4888
H -2.3398 5.7048 -0.8774
H -3.6328 0.2825 0.3061
H -4.8344 0.5710 -1.6416
H -3.0887 -1.2630 -2.2899
H -4.5753 -2.6516 -1.1911
H -2.6430 -2.2000 0.5943
H -1.5355 -3.8175 -1.1615
*
