! XTB2 opt numfreq
* XYZ 0 1
O 1.9482 -0.4197 2.7136
C 1.4826 0.4797 2.0292
O 1.6548 1.7765 2.3536
C 0.6732 0.2513 0.7457
O 0.5679 -1.1768 0.5338
C 1.4479 0.8306 -0.4709
C 2.8485 0.2234 -0.6915
O 3.7437 0.6731 0.3281
C 3.4049 0.5645 -2.0988
O 2.5786 -0.0610 -3.0871
C 4.8577 0.1115 -2.3033
O 4.9778 -1.2345 -1.8654
P 6.2000 -1.5937 -0.8968
O 7.5251 -1.6924 -1.5686
O 6.1169 -0.5567 0.3090
O 5.7528 -2.9606 -0.2087
C -0.7703 0.8693 0.8528
O -0.6769 2.3258 0.8273
C -1.4347 0.5460 2.1992
O -0.8907 0.8303 3.2653
O -2.6449 -0.0440 2.2009
C -3.6620 0.2350 1.2041
C -4.3941 -1.0874 0.9290
O -5.4997 -0.8930 0.0625
P -6.9383 -0.7089 0.7343
O -7.0677 0.3311 1.7885
O -7.8883 -0.4744 -0.5252
O -7.3604 -2.1778 1.1859
C -3.1269 0.9043 -0.0702
O -3.2283 2.3317 0.0613
C -1.6854 0.4576 -0.3301
O -1.6913 -0.9368 -0.6327
H 2.1178 1.7304 3.2218
H 1.0278 -1.6115 1.2890
H 0.8578 0.6390 -1.3742
H 1.5485 1.9180 -0.3648
H 2.7767 -0.8661 -0.6010
H 3.7862 1.6479 0.2872
H 3.3549 1.6457 -2.2712
H 2.8166 -1.0086 -3.0994
H 5.1259 0.1414 -3.3644
H 5.5430 0.7681 -1.7574
H 5.2048 -0.4616 0.6594
H 6.2894 -3.6977 -0.5564
H -0.1274 2.5859 1.6014
H -4.3740 0.9178 1.6837
H -3.7270 -1.8246 0.4722
H -4.7235 -1.5376 1.8741
H -7.8146 0.4397 -0.8531
H -8.2645 -2.1834 1.5452
H -3.7593 0.6433 -0.9254
H -2.3489 2.7027 0.2829
H -1.3452 0.9822 -1.2313
H -0.7854 -1.2949 -0.5084
*
