! XTB2 opt numfreq
* XYZ 0 1
C -2.6596 -1.0987 2.1686
C -1.9195 -0.3010 1.0842
O -0.6882 0.1588 1.6759
C -2.7739 0.9438 0.8021
O -2.5166 2.0701 1.2071
O -3.9118 0.7064 0.1189
C -1.6334 -1.1258 -0.2126
O -2.8780 -1.6472 -0.7419
C -0.7461 -2.3256 0.1838
O -1.1969 -3.4095 0.5465
O 0.5962 -2.1108 0.2212
C 1.2240 -1.3620 -0.8373
C 2.7083 -1.1852 -0.4957
O 2.8783 -0.1908 0.5040
P 3.9044 0.9944 0.2001
O 5.3276 0.6321 -0.0202
O 3.2230 1.7706 -1.0258
O 3.6471 2.0114 1.3983
C 0.5066 -0.0418 -1.0952
O 1.0379 0.6293 -2.2464
C -0.9580 -0.3679 -1.3696
O -1.6572 0.8431 -1.7016
H -3.5889 -1.5405 1.7950
H -2.9192 -0.4513 3.0155
H -2.0304 -1.8935 2.5824
H -0.9124 0.9289 2.2382
H -4.3076 1.5986 0.0078
H -3.4501 -0.8728 -0.9242
H 1.1860 -1.9939 -1.7350
H 3.2687 -0.9173 -1.3986
H 3.1250 -2.1188 -0.1037
H 3.7731 2.5455 -1.2565
H 4.0375 1.6861 2.2305
H 0.5829 0.6590 -0.2601
H 1.8190 1.1382 -1.9292
H -1.0226 -0.9785 -2.2812
H -1.0752 1.2998 -2.3454
*
