! XTB2 opt numfreq
* XYZ 0 1
O 1.3114 -2.1065 2.8434
C 0.7791 -2.1483 1.7415
O -0.1559 -3.0911 1.4911
C 1.1136 -1.2510 0.5375
O 1.0638 -2.0400 -0.6776
C 2.5692 -0.6851 0.7391
O 3.4513 -1.7237 1.2519
C 3.2399 -0.2543 -0.5878
O 3.6926 -1.4537 -1.2695
C 4.4408 0.7043 -0.4306
O 4.8580 1.0845 -1.7577
C 5.6527 0.1153 0.3053
O 6.6934 1.0835 0.3475
P 8.0069 0.7246 1.1809
O 7.8752 0.5867 2.6525
O 9.0082 1.8822 0.7238
O 8.6365 -0.5331 0.4261
C 0.0310 -0.1107 0.4741
O -0.1327 0.4769 1.7554
O 0.5258 0.9568 -0.3326
C -1.3454 -0.6237 -0.0864
O -1.2154 -1.0492 -1.4600
C -2.4745 0.4396 -0.0309
O -2.0109 1.6192 -0.7217
C -3.7738 -0.0913 -0.6963
O -3.5828 -0.1287 -2.1169
C -5.0144 0.7770 -0.3971
O -5.2357 0.8590 1.0189
C -6.2564 0.2291 -1.1280
O -7.3882 1.0761 -0.9506
P -8.0694 1.0945 0.4911
O -7.7696 -0.0701 1.3702
O -7.5851 2.4787 1.1068
O -9.6036 1.3970 0.1945
H -0.2115 -3.6127 2.3203
H 1.9384 -2.4733 -0.7761
H 2.5658 0.1365 1.4647
H 3.1738 -1.8925 2.1808
H 2.5298 0.2212 -1.2678
H 4.1142 -1.9950 -0.5647
H 4.1277 1.6285 0.0657
H 4.9499 0.2551 -2.2631
H 6.0330 -0.7662 -0.2205
H 5.3937 -0.1571 1.3313
H 8.7352 2.7387 1.0948
H 9.5702 -0.6425 0.6853
H -0.3675 1.4041 1.5620
H -0.2350 1.2881 -0.8573
H -1.6925 -1.4833 0.4918
H -0.3674 -1.5625 -1.5136
H -2.6606 0.7122 1.0118
H -2.6319 1.7860 -1.4637
H -3.9673 -1.1105 -0.3418
H -2.7076 -0.5631 -2.2626
H -4.8466 1.8037 -0.7433
H -5.7480 0.0680 1.3137
H -6.5119 -0.7764 -0.7714
H -6.0783 0.1597 -2.2072
H -6.7313 2.3668 1.5773
H -9.7104 2.2415 -0.2750
*
