! XTB2 opt numfreq
* XYZ 0 1
O 0.6888 -1.2835 -0.9632
C -0.0543 -0.3188 -0.8685
O -0.6655 0.1845 -1.9656
C -0.3770 0.4719 0.4044
O -1.3334 1.5351 0.2002
C -1.0070 -0.5039 1.4333
O -1.1799 0.1880 2.6890
C -2.3455 -1.1794 1.0426
O -2.1452 -2.0942 -0.0415
C -3.4984 -0.2388 0.6801
O -4.6870 -1.0245 0.5631
P -6.0315 -0.2205 0.2406
O -6.2982 1.0010 1.0473
O -5.9549 0.0906 -1.3226
O -7.1730 -1.3310 0.2674
C 0.9176 1.1515 0.9680
O 1.7621 0.2927 1.7348
C 1.7402 2.0159 -0.0265
O 0.8391 2.7796 -0.8541
C 2.8156 1.3714 -0.9302
O 2.1979 0.9380 -2.1588
C 3.6494 0.2444 -0.3247
O 4.6363 -0.1235 -1.2850
P 5.7217 -1.2313 -0.8968
O 6.6910 -1.6330 -1.9516
O 6.3496 -0.7993 0.5023
O 4.8477 -2.4830 -0.4240
H -0.3409 -0.3915 -2.6894
H -0.9146 2.1377 -0.4557
H -0.2935 -1.3158 1.6251
H -1.6636 1.0138 2.4829
H -2.6703 -1.7892 1.8961
H -3.0224 -2.4781 -0.2308
H -3.6486 0.5205 1.4527
H -3.3331 0.2347 -0.2917
H -6.4694 0.8965 -1.5213
H -6.9772 -2.0550 -0.3521
H 0.5488 1.8926 1.6943
H 1.2623 0.0569 2.5437
H 2.2832 2.7398 0.5962
H 0.9980 2.4582 -1.7709
H 3.4962 2.1708 -1.2517
H 2.8953 0.4347 -2.6276
H 4.1401 0.5785 0.5938
H 3.0419 -0.6414 -0.1314
H 5.8171 -1.1494 1.2389
H 4.7446 -3.1146 -1.1621
*
