! XTB2 opt numfreq
* XYZ 0 1
C -1.4480 -0.2779 -0.3076
C -0.2979 0.4712 0.2984
O -0.4387 1.4411 1.0319
C 1.0964 -0.0623 -0.0639
O 1.2832 -1.0212 -0.7876
O 2.0969 0.6266 0.4917
H -1.4323 -1.3170 0.0303
H -1.3875 -0.2304 -1.3978
H -2.3892 0.1793 0.0107
H 2.9171 0.1906 0.1857
*
