! XTB2 opt numfreq
* XYZ 0 1
O 0.0066 0.3978 0.0000
H 0.7601 -0.2115 0.0000
H -0.7667 -0.1862 0.0000
*
