! XTB2 opt numfreq
* XYZ 1 1
O -0.0002 0.0022 0.2226
H -0.2912 0.8987 -0.0832
H -0.6333 -0.7027 -0.0681
H 0.9247 -0.1982 -0.0713
*
