! XTB2 opt numfreq
* XYZ 0 1
C -0.0122 0.0019 0.0001
O 1.1977 -0.1876 -0.0060
H -0.7369 -0.8278 0.0008
H -0.4486 1.0135 0.0051
*
