! XTB2 opt numfreq
* XYZ 0 1
C -1.0419 -1.5531 -0.3416
C -0.8717 -0.0337 -0.4031
O -2.1452 0.5283 -0.1358
O -0.5375 0.3225 -1.7330
C 0.2057 0.4609 0.5809
C 0.2648 1.9736 0.6302
O -0.6791 2.7084 0.3433
C 1.6031 -0.0751 0.2522
O 1.8451 -1.2561 1.0140
H -1.2836 -1.8836 0.6742
H -0.1485 -2.0799 -0.6907
H -1.8692 -1.8738 -0.9863
H -2.0001 1.4926 -0.0306
H -1.2746 -0.0140 -2.2727
H -0.0745 0.1600 1.5996
H 1.1840 2.4119 1.0554
H 2.3921 0.6364 0.5171
H 1.7214 -0.3170 -0.8087
H 2.7095 -1.6085 0.7356
*
