! XTB2 opt numfreq
* XYZ 0 1
C -0.6488 -0.0381 0.0331
C 0.8440 0.0556 -0.0407
O 1.5588 -0.8520 -0.4527
H -1.0873 0.7478 -0.5862
H -0.9644 0.0923 1.0708
H -0.9816 -1.0142 -0.3283
H 1.2794 1.0086 0.3041
*
