! XTB2 opt numfreq
* XYZ 0 1
O -1.3494 1.6192 0.5825
C -1.5766 0.4849 0.1741
C -0.5248 -0.4654 -0.3259
C 0.8621 0.1432 -0.2676
O 1.8012 -0.8093 -0.7541
H -2.6082 0.0933 0.1544
H -0.7747 -0.7490 -1.3540
H -0.5672 -1.3782 0.2783
H 0.9249 1.0432 -0.8883
H 1.1344 0.4080 0.7595
H 2.6783 -0.3899 -0.7040
*
