! XTB2 opt numfreq
* XYZ 0 1
C -1.7052 -0.2662 -0.6248
C -0.3636 -0.4654 0.0656
O -0.6014 -0.4942 1.4721
C 0.5995 0.6691 -0.2703
C 1.9811 0.4066 0.2729
O 2.2604 -0.5244 1.0231
H -2.1738 0.6729 -0.3100
H -2.3980 -1.0695 -0.3516
H -1.5954 -0.2564 -1.7135
H 0.0512 -1.4368 -0.2277
H 0.2408 -0.7770 1.8845
H 0.2596 1.6171 0.1606
H 0.6938 0.7854 -1.3552
H 2.7510 1.1387 -0.0257
*
