! XTB2 opt numfreq
* XYZ 0 1
C 0.8772 0.2124 0.0569
C -0.4389 -0.4589 -0.2771
O -1.5102 0.4551 -0.0931
H 1.7147 -0.4740 -0.0958
H 1.0272 1.0987 -0.5683
H 0.8852 0.5519 1.0978
H -0.6078 -1.3312 0.3614
H -0.4468 -0.7881 -1.3202
H -1.5006 0.7342 0.8384
*
