! XTB2 opt numfreq
* XYZ 0 1
C -0.9517 -0.0731 0.1308
C 0.4630 0.2331 -0.2344
O 0.8429 1.0957 -1.0070
O 1.3410 -0.5686 0.3962
H -1.6192 0.6052 -0.4082
H -1.0974 0.0733 1.2039
H -1.1938 -1.1001 -0.1536
H 2.2151 -0.2656 0.0723
*
