! XTB2 opt numfreq
* XYZ 0 1
O -0.1034 2.5839 -0.6142
C -0.0580 1.6062 0.1302
C 0.2121 0.2113 -0.3776
C -1.1302 -0.4446 -0.6779
O -1.8184 -0.7550 0.5281
C 1.0215 -0.5596 0.6580
O 2.3473 -0.0426 0.7398
H -0.2981 1.7036 1.2034
H 0.7884 0.3158 -1.3051
H -1.7680 0.2112 -1.2806
H -0.9777 -1.3796 -1.2271
H -2.6854 -1.1236 0.2781
H 0.5830 -0.4899 1.6590
H 1.0931 -1.6199 0.3933
H 2.7937 -0.2172 -0.1073
*
