! XTB2 opt numfreq
* XYZ 0 1
O 0.0014 0.3978 0.0000
H 0.7628 -0.2015 0.0000
H -0.7641 -0.1963 0.0000
*
